c colouring generated by benchmark framework
p edge 450 16750
v 1 1
v 2 15
v 3 4
v 4 6
v 5 16
v 6 13
v 7 4
v 8 18
v 9 3
v 10 18
v 11 0
v 12 10
v 13 18
v 14 18
v 15 13
v 16 1
v 17 15
v 18 4
v 19 19
v 20 16
v 21 15
v 22 8
v 23 2
v 24 17
v 25 7
v 26 0
v 27 2
v 28 19
v 29 5
v 30 0
v 31 17
v 32 15
v 33 4
v 34 19
v 35 18
v 36 6
v 37 8
v 38 9
v 39 14
v 40 6
v 41 0
v 42 5
v 43 9
v 44 14
v 45 1
v 46 4
v 47 15
v 48 4
v 49 19
v 50 11
v 51 18
v 52 8
v 53 2
v 54 3
v 55 11
v 56 0
v 57 14
v 58 18
v 59 18
v 60 13
v 61 16
v 62 7
v 63 4
v 64 9
v 65 1
v 66 6
v 67 8
v 68 11
v 69 14
v 70 5
v 71 13
v 72 10
v 73 17
v 74 11
v 75 13
v 76 3
v 77 15
v 78 8
v 79 9
v 80 16
v 81 11
v 82 8
v 83 6
v 84 14
v 85 6
v 86 0
v 87 11
v 88 5
v 89 10
v 90 13
v 91 1
v 92 15
v 93 4
v 94 5
v 95 16
v 96 17
v 97 8
v 98 2
v 99 14
v 100 18
v 101 0
v 102 3
v 103 5
v 104 10
v 105 13
v 106 1
v 107 15
v 108 4
v 109 9
v 110 16
v 111 3
v 112 4
v 113 2
v 114 12
v 115 7
v 116 0
v 117 12
v 118 5
v 119 10
v 120 13
v 121 1
v 122 15
v 123 4
v 124 19
v 125 16
v 126 6
v 127 12
v 128 7
v 129 3
v 130 7
v 131 0
v 132 7
v 133 9
v 134 6
v 135 13
v 136 16
v 137 15
v 138 4
v 139 19
v 140 14
v 141 15
v 142 8
v 143 2
v 144 17
v 145 11
v 146 0
v 147 2
v 148 19
v 149 13
v 150 0
v 151 16
v 152 18
v 153 4
v 154 9
v 155 14
v 156 6
v 157 8
v 158 11
v 159 6
v 160 17
v 161 16
v 162 2
v 163 7
v 164 10
v 165 13
v 166 1
v 167 4
v 168 8
v 169 17
v 170 1
v 171 5
v 172 8
v 173 18
v 174 11
v 175 5
v 176 0
v 177 3
v 178 17
v 179 18
v 180 13
v 181 17
v 182 15
v 183 4
v 184 9
v 185 16
v 186 18
v 187 8
v 188 2
v 189 14
v 190 3
v 191 0
v 192 12
v 193 5
v 194 10
v 195 13
v 196 3
v 197 15
v 198 4
v 199 9
v 200 16
v 201 7
v 202 8
v 203 19
v 204 17
v 205 11
v 206 0
v 207 18
v 208 5
v 209 3
v 210 13
v 211 1
v 212 15
v 213 4
v 214 14
v 215 16
v 216 7
v 217 8
v 218 19
v 219 11
v 220 12
v 221 0
v 222 2
v 223 5
v 224 7
v 225 13
v 226 16
v 227 15
v 228 4
v 229 19
v 230 11
v 231 12
v 232 4
v 233 2
v 234 18
v 235 9
v 236 0
v 237 7
v 238 18
v 239 19
v 240 6
v 241 16
v 242 14
v 243 4
v 244 19
v 245 16
v 246 15
v 247 8
v 248 1
v 249 12
v 250 19
v 251 13
v 252 2
v 253 5
v 254 10
v 255 0
v 256 14
v 257 15
v 258 8
v 259 9
v 260 10
v 261 1
v 262 8
v 263 9
v 264 19
v 265 6
v 266 0
v 267 2
v 268 11
v 269 3
v 270 17
v 271 1
v 272 15
v 273 4
v 274 17
v 275 6
v 276 12
v 277 8
v 278 5
v 279 6
v 280 18
v 281 0
v 282 2
v 283 5
v 284 18
v 285 13
v 286 2
v 287 15
v 288 4
v 289 10
v 290 3
v 291 14
v 292 8
v 293 2
v 294 17
v 295 12
v 296 0
v 297 10
v 298 6
v 299 7
v 300 13
v 301 1
v 302 15
v 303 4
v 304 3
v 305 16
v 306 17
v 307 8
v 308 10
v 309 12
v 310 7
v 311 0
v 312 12
v 313 5
v 314 10
v 315 13
v 316 1
v 317 15
v 318 4
v 319 18
v 320 16
v 321 19
v 322 8
v 323 2
v 324 6
v 325 19
v 326 0
v 327 2
v 328 5
v 329 10
v 330 13
v 331 16
v 332 12
v 333 4
v 334 19
v 335 16
v 336 17
v 337 4
v 338 7
v 339 7
v 340 10
v 341 5
v 342 12
v 343 17
v 344 9
v 345 13
v 346 9
v 347 15
v 348 8
v 349 9
v 350 16
v 351 6
v 352 15
v 353 12
v 354 3
v 355 18
v 356 0
v 357 18
v 358 18
v 359 10
v 360 13
v 361 1
v 362 15
v 363 4
v 364 1
v 365 16
v 366 15
v 367 8
v 368 2
v 369 17
v 370 11
v 371 0
v 372 2
v 373 5
v 374 10
v 375 0
v 376 1
v 377 15
v 378 4
v 379 9
v 380 10
v 381 2
v 382 8
v 383 2
v 384 6
v 385 1
v 386 0
v 387 2
v 388 7
v 389 0
v 390 13
v 391 1
v 392 15
v 393 4
v 394 14
v 395 1
v 396 7
v 397 8
v 398 18
v 399 19
v 400 3
v 401 0
v 402 12
v 403 5
v 404 6
v 405 13
v 406 16
v 407 15
v 408 4
v 409 19
v 410 11
v 411 6
v 412 8
v 413 2
v 414 9
v 415 9
v 416 0
v 417 11
v 418 5
v 419 3
v 420 13
v 421 16
v 422 19
v 423 4
v 424 7
v 425 16
v 426 17
v 427 8
v 428 12
v 429 11
v 430 14
v 431 7
v 432 3
v 433 5
v 434 10
v 435 17
v 436 18
v 437 15
v 438 8
v 439 9
v 440 16
v 441 2
v 442 8
v 443 11
v 444 7
v 445 7
v 446 0
v 447 2
v 448 18
v 449 10
v 450 13
